problems/prob129-Sonet/params/s2ring09.param
language Essence 1.3
letting nnodes be 10
letting nrings be 6
letting capacity be 5
letting demand be {{1, 3},
{1, 5},
{1, 6},
{1, 10},
{2, 3},
{2, 6},
{2, 10},
{3, 4},
{4, 9},
{5, 9},
{6, 7},
{6, 9},
{7, 8},
{8, 9},
{9, 10}}
