problems/csplib-prob056/params/given/s2ring09.txt
10 6 25 5 15
1 1 1  1 2 2  2 3 4 5 6 6 7 8  9 
3 5 6 10 3 6 10 4 9 9 7 9 8 9 10 
2 3 5 1 3 20 2 5 17 21 5 4 3 3 3 
